\ This file has been generated by DOcplex
\ ENCODING=ISO-8859-1
\Problem name: random_problem.lp

Minimize
 obj: - 9 x0 + 4 x1 - 4 x3 - 7 x4 - 6 x5 - 3 x6 - 10 x7 + 3 x8 + 2 x9 + 10 x10
      - 9 x11 + [ - 2 x0*x2 - 4 x0*x3 + 4 x0*x6 - 10 x0*x7 - 18 x0*x11 + 2 x1*x3
      - 10 x1*x6 - 18 x1*x7 - 4 x1*x10 + 4 x1*x11 + 8 x2*x6 + 10 x2*x8
      + 18 x2*x9 - 18 x2*x11 - 2 x3*x4 - 20 x3*x5 + 16 x3*x10 - 10 x4*x5
      - 2 x4*x6 + 16 x4*x9 + 14 x4*x11 - 4 x5*x7 - 2 x5*x10 + 12 x5*x11
      + 2 x6*x8 - 12 x7*x8 - 4 x7*x9 - 16 x8*x9 - 8 x8*x10 + 16 x9*x10 ]/2
Subject To
 c0: x0 + x1 - x3 + 2 x6 + 2 x9 = 0
 c1: - x0 + 2 x1 + 2 x3 - 2 x5 - x10 = 1

Bounds
 0 <= x0 <= 1
 0 <= x1 <= 1
 0 <= x2 <= 1
 0 <= x3 <= 1
 0 <= x4 <= 1
 0 <= x5 <= 1
 0 <= x6 <= 1
 0 <= x7 <= 1
 0 <= x8 <= 1
 0 <= x9 <= 1
 0 <= x10 <= 1
 0 <= x11 <= 1

Binaries
 x0 x1 x2 x3 x4 x5 x6 x7 x8 x9 x10 x11
End
